# set
set V := C1 C2 C3 C4 C5 ;
set F := F6 F7 F8 F9 F6_1 F6_2 F7_1 F7_2 F8_1 F8_2 F9_1 F9_2 ;
set D0 := N0;
set Dσ := Nσ;

# param
param Cf := 200;		# ECV fixed cost
param C := 200;		# ECV max load
param Q := 77.75;		# ECV/BSV battery level
param h := 1;		# ECV consumption

param CB := 60;		# BSV fixed cost
param Qplun := 5;		# BSV max load
param hplun := 1;		# BSV consumption
param W := 155.5;		# BSV battery level

param Cde := 1;		# ECV cost per unit distance
param Cdb := 1;		# BSV cost per unit distance
param lamda := 0;	# battery swap time
param n := 5;		# number of customers
param g := 1.17;	# recharging rate
param Cr := 100;		# recharging cost
param Ct := 10;		# travel cost
param Cs ;		# battery swap cost

param m :=
N0 0
C1 40
C2 40
C3 16
C4 9
C5 40
F6 0
F6_1 0
F6_2 0
F7 0
F7_1 0
F7_2 0
F8 0
F8_1 0
F8_2 0
F9 0
F9_1 0
F9_2 0
Nσ 0
;

param e :=
N0 0
C1 69
C2 94
C3 150
C4 14
C5 43
F6 0
F6_1 0
F6_2 0
F7 0
F7_1 0
F7_2 0
F8 0
F8_1 0
F8_2 0
F9 0
F9_1 0
F9_2 0
Nσ 0
;

param l :=
N0 240
C1 79
C2 119
C3 160
C4 134
C5 78
F6 240
F6_1 240
F6_2 240
F7 240
F7_1 240
F7_2 240
F8 240
F8_1 240
F8_2 240
F9 240
F9_1 240
F9_2 240
Nσ 240
;

param s :=
N0 0
C1 10
C2 10
C3 10
C4 10
C5 10
F6 0
F6_1 0
F6_2 0
F7 0
F7_1 0
F7_2 0
F8 0
F8_1 0
F8_2 0
F9 0
F9_1 0
F9_2 0
Nσ 0
;

param d : N0 C1 C2 C3 C4 C5 F6 F6_1 F6_2 F7 F7_1 F7_2 F8 F8_1 F8_2 F9 F9_1 F9_2 Nσ  :=
N0 0.0000 33.5261 35.0000 14.1421 14.7648 43.0116 0.0000 0.0000 0.0000 36.2353 36.2353 36.2353 27.5136 27.5136 27.5136 24.0208 24.0208 24.0208 0.0000
C1 33.5261 0.0000 40.6079 29.7321 19.2354 72.6223 33.5261 33.5261 33.5261 64.5368 64.5368 64.5368 19.9249 19.9249 19.9249 34.0147 34.0147 34.0147 33.5261
C2 35.0000 40.6079 0.0000 46.0977 30.8707 74.3303 35.0000 35.0000 35.0000 69.1231 69.1231 69.1231 51.1077 51.1077 51.1077 11.0454 11.0454 11.0454 35.0000
C3 14.1421 29.7321 46.0977 0.0000 17.2627 43.0116 14.1421 14.1421 14.1421 34.8281 34.8281 34.8281 16.0312 16.0312 16.0312 35.1710 35.1710 35.1710 14.1421
C4 14.7648 19.2354 30.8707 17.2627 0.0000 56.6392 14.7648 14.7648 14.7648 49.2037 49.2037 49.2037 20.6155 20.6155 20.6155 20.8087 20.8087 20.8087 14.7648
C5 43.0116 72.6223 74.3303 43.0116 56.6392 0.0000 43.0116 43.0116 43.0116 8.5440 8.5440 8.5440 57.2451 57.2451 57.2451 64.4748 64.4748 64.4748 43.0116
F6 0.0000 33.5261 35.0000 14.1421 14.7648 43.0116 0.0000 0.0000 0.0000 36.2353 36.2353 36.2353 27.5136 27.5136 27.5136 24.0208 24.0208 24.0208 0.0000
F6_1 0.0000 33.5261 35.0000 14.1421 14.7648 43.0116 0.0000 0.0000 0.0000 36.2353 36.2353 36.2353 27.5136 27.5136 27.5136 24.0208 24.0208 24.0208 0.0000
F6_2 0.0000 33.5261 35.0000 14.1421 14.7648 43.0116 0.0000 0.0000 0.0000 36.2353 36.2353 36.2353 27.5136 27.5136 27.5136 24.0208 24.0208 24.0208 0.0000
F7 36.2353 64.5368 69.1231 34.8281 49.2037 8.5440 36.2353 36.2353 36.2353 0.0000 0.0000 0.0000 48.7647 48.7647 48.7647 58.8218 58.8218 58.8218 36.2353
F7_1 36.2353 64.5368 69.1231 34.8281 49.2037 8.5440 36.2353 36.2353 36.2353 0.0000 0.0000 0.0000 48.7647 48.7647 48.7647 58.8218 58.8218 58.8218 36.2353
F7_2 36.2353 64.5368 69.1231 34.8281 49.2037 8.5440 36.2353 36.2353 36.2353 0.0000 0.0000 0.0000 48.7647 48.7647 48.7647 58.8218 58.8218 58.8218 36.2353
F8 27.5136 19.9249 51.1077 16.0312 20.6155 57.2451 27.5136 27.5136 27.5136 48.7647 48.7647 48.7647 0.0000 0.0000 0.0000 41.4005 41.4005 41.4005 27.5136
F8_1 27.5136 19.9249 51.1077 16.0312 20.6155 57.2451 27.5136 27.5136 27.5136 48.7647 48.7647 48.7647 0.0000 0.0000 0.0000 41.4005 41.4005 41.4005 27.5136
F8_2 27.5136 19.9249 51.1077 16.0312 20.6155 57.2451 27.5136 27.5136 27.5136 48.7647 48.7647 48.7647 0.0000 0.0000 0.0000 41.4005 41.4005 41.4005 27.5136
F9 24.0208 34.0147 11.0454 35.1710 20.8087 64.4748 24.0208 24.0208 24.0208 58.8218 58.8218 58.8218 41.4005 41.4005 41.4005 0.0000 0.0000 0.0000 24.0208
F9_1 24.0208 34.0147 11.0454 35.1710 20.8087 64.4748 24.0208 24.0208 24.0208 58.8218 58.8218 58.8218 41.4005 41.4005 41.4005 0.0000 0.0000 0.0000 24.0208
F9_2 24.0208 34.0147 11.0454 35.1710 20.8087 64.4748 24.0208 24.0208 24.0208 58.8218 58.8218 58.8218 41.4005 41.4005 41.4005 0.0000 0.0000 0.0000 24.0208
Nσ 0.0000 33.5261 35.0000 14.1421 14.7648 43.0116 0.0000 0.0000 0.0000 36.2353 36.2353 36.2353 27.5136 27.5136 27.5136 24.0208 24.0208 24.0208 0.0000
;

param t : N0 C1 C2 C3 C4 C5 F6 F6_1 F6_2 F7 F7_1 F7_2 F8 F8_1 F8_2 F9 F9_1 F9_2 Nσ  :=
N0 0.0000 33.5261 35.0000 14.1421 14.7648 43.0116 0.0000 0.0000 0.0000 36.2353 36.2353 36.2353 27.5136 27.5136 27.5136 24.0208 24.0208 24.0208 0.0000
C1 33.5261 0.0000 40.6079 29.7321 19.2354 72.6223 33.5261 33.5261 33.5261 64.5368 64.5368 64.5368 19.9249 19.9249 19.9249 34.0147 34.0147 34.0147 33.5261
C2 35.0000 40.6079 0.0000 46.0977 30.8707 74.3303 35.0000 35.0000 35.0000 69.1231 69.1231 69.1231 51.1077 51.1077 51.1077 11.0454 11.0454 11.0454 35.0000
C3 14.1421 29.7321 46.0977 0.0000 17.2627 43.0116 14.1421 14.1421 14.1421 34.8281 34.8281 34.8281 16.0312 16.0312 16.0312 35.1710 35.1710 35.1710 14.1421
C4 14.7648 19.2354 30.8707 17.2627 0.0000 56.6392 14.7648 14.7648 14.7648 49.2037 49.2037 49.2037 20.6155 20.6155 20.6155 20.8087 20.8087 20.8087 14.7648
C5 43.0116 72.6223 74.3303 43.0116 56.6392 0.0000 43.0116 43.0116 43.0116 8.5440 8.5440 8.5440 57.2451 57.2451 57.2451 64.4748 64.4748 64.4748 43.0116
F6 0.0000 33.5261 35.0000 14.1421 14.7648 43.0116 0.0000 0.0000 0.0000 36.2353 36.2353 36.2353 27.5136 27.5136 27.5136 24.0208 24.0208 24.0208 0.0000
F6_1 0.0000 33.5261 35.0000 14.1421 14.7648 43.0116 0.0000 0.0000 0.0000 36.2353 36.2353 36.2353 27.5136 27.5136 27.5136 24.0208 24.0208 24.0208 0.0000
F6_2 0.0000 33.5261 35.0000 14.1421 14.7648 43.0116 0.0000 0.0000 0.0000 36.2353 36.2353 36.2353 27.5136 27.5136 27.5136 24.0208 24.0208 24.0208 0.0000
F7 36.2353 64.5368 69.1231 34.8281 49.2037 8.5440 36.2353 36.2353 36.2353 0.0000 0.0000 0.0000 48.7647 48.7647 48.7647 58.8218 58.8218 58.8218 36.2353
F7_1 36.2353 64.5368 69.1231 34.8281 49.2037 8.5440 36.2353 36.2353 36.2353 0.0000 0.0000 0.0000 48.7647 48.7647 48.7647 58.8218 58.8218 58.8218 36.2353
F7_2 36.2353 64.5368 69.1231 34.8281 49.2037 8.5440 36.2353 36.2353 36.2353 0.0000 0.0000 0.0000 48.7647 48.7647 48.7647 58.8218 58.8218 58.8218 36.2353
F8 27.5136 19.9249 51.1077 16.0312 20.6155 57.2451 27.5136 27.5136 27.5136 48.7647 48.7647 48.7647 0.0000 0.0000 0.0000 41.4005 41.4005 41.4005 27.5136
F8_1 27.5136 19.9249 51.1077 16.0312 20.6155 57.2451 27.5136 27.5136 27.5136 48.7647 48.7647 48.7647 0.0000 0.0000 0.0000 41.4005 41.4005 41.4005 27.5136
F8_2 27.5136 19.9249 51.1077 16.0312 20.6155 57.2451 27.5136 27.5136 27.5136 48.7647 48.7647 48.7647 0.0000 0.0000 0.0000 41.4005 41.4005 41.4005 27.5136
F9 24.0208 34.0147 11.0454 35.1710 20.8087 64.4748 24.0208 24.0208 24.0208 58.8218 58.8218 58.8218 41.4005 41.4005 41.4005 0.0000 0.0000 0.0000 24.0208
F9_1 24.0208 34.0147 11.0454 35.1710 20.8087 64.4748 24.0208 24.0208 24.0208 58.8218 58.8218 58.8218 41.4005 41.4005 41.4005 0.0000 0.0000 0.0000 24.0208
F9_2 24.0208 34.0147 11.0454 35.1710 20.8087 64.4748 24.0208 24.0208 24.0208 58.8218 58.8218 58.8218 41.4005 41.4005 41.4005 0.0000 0.0000 0.0000 24.0208
Nσ 0.0000 33.5261 35.0000 14.1421 14.7648 43.0116 0.0000 0.0000 0.0000 36.2353 36.2353 36.2353 27.5136 27.5136 27.5136 24.0208 24.0208 24.0208 0.0000
;
